3 3 4 
3 2 1 1 4 16 2 3 2 24 3 27 4 24 2 1 3 1 38 2 38 3 39 2 3 1 28 3 28 4 32 2 2 3 1 47 2 48 4 52 3 3 2 56 3 62 4 54 
3 2 1 1 4 31 3 2 1 54 3 49 2 1 4 1 46 2 50 3 54 4 45 2 2 3 65 4 56 2 2 2 1 68 4 74 3 4 1 65 2 57 3 57 4 64 
3 2 1 1 1 48 2 2 1 66 3 57 2 2 4 1 75 2 68 3 69 4 63 3 2 1 73 2 86 2 2 4 1 88 2 84 3 92 4 87 3 1 4 108 
